p edge 60 523
e 1 2
e 1 3
e 1 10
e 1 11
e 1 14
e 1 15
e 1 17
e 1 18
e 1 19
e 1 20
e 1 25
e 1 36
e 1 38
e 1 39
e 1 40
e 1 45
e 1 46
e 1 47
e 1 50
e 1 57
e 1 58
e 1 60
e 2 3
e 2 5
e 2 8
e 2 10
e 2 18
e 2 27
e 2 29
e 2 33
e 2 34
e 2 39
e 2 43
e 2 46
e 2 50
e 2 55
e 2 58
e 2 60
e 3 4
e 3 7
e 3 12
e 3 14
e 3 15
e 3 17
e 3 20
e 3 23
e 3 25
e 3 28
e 3 29
e 3 36
e 3 47
e 3 48
e 3 53
e 3 58
e 4 6
e 4 7
e 4 9
e 4 12
e 4 15
e 4 17
e 4 21
e 4 23
e 4 29
e 4 30
e 4 32
e 4 35
e 4 37
e 4 41
e 4 44
e 4 45
e 4 46
e 4 48
e 4 50
e 4 52
e 4 53
e 4 55
e 5 6
e 5 14
e 5 21
e 5 30
e 5 40
e 5 54
e 5 56
e 5 57
e 5 58
e 6 10
e 6 11
e 6 12
e 6 13
e 6 16
e 6 18
e 6 19
e 6 20
e 6 26
e 6 27
e 6 33
e 6 42
e 6 44
e 6 46
e 6 47
e 6 51
e 6 53
e 6 54
e 6 60
e 7 11
e 7 14
e 7 15
e 7 16
e 7 18
e 7 23
e 7 26
e 7 27
e 7 46
e 7 51
e 7 53
e 7 56
e 7 59
e 8 12
e 8 13
e 8 15
e 8 22
e 8 32
e 8 35
e 8 38
e 8 42
e 8 44
e 8 47
e 8 51
e 8 52
e 8 55
e 8 57
e 9 10
e 9 11
e 9 13
e 9 14
e 9 18
e 9 21
e 9 22
e 9 25
e 9 35
e 9 37
e 9 40
e 9 42
e 9 44
e 9 46
e 9 51
e 9 54
e 9 56
e 9 59
e 9 60
e 10 11
e 10 13
e 10 15
e 10 16
e 10 23
e 10 24
e 10 25
e 10 26
e 10 30
e 10 33
e 10 34
e 10 35
e 10 43
e 10 47
e 10 49
e 10 50
e 10 51
e 10 57
e 11 13
e 11 15
e 11 16
e 11 17
e 11 22
e 11 25
e 11 26
e 11 31
e 11 36
e 11 38
e 11 54
e 11 59
e 12 15
e 12 17
e 12 22
e 12 25
e 12 28
e 12 33
e 12 34
e 12 40
e 12 41
e 12 42
e 12 43
e 12 44
e 12 45
e 12 47
e 12 48
e 12 59
e 13 16
e 13 19
e 13 27
e 13 28
e 13 29
e 13 33
e 13 37
e 13 38
e 13 39
e 13 40
e 13 41
e 13 44
e 13 46
e 13 54
e 13 56
e 13 60
e 14 16
e 14 19
e 14 29
e 14 40
e 14 41
e 14 43
e 14 46
e 14 56
e 14 58
e 14 59
e 15 16
e 15 17
e 15 22
e 15 33
e 15 35
e 15 41
e 15 43
e 15 45
e 15 47
e 15 48
e 15 52
e 15 54
e 16 17
e 16 18
e 16 30
e 16 32
e 16 36
e 16 40
e 16 46
e 16 49
e 16 54
e 16 55
e 16 56
e 16 59
e 16 60
e 17 20
e 17 25
e 17 28
e 17 34
e 17 36
e 17 39
e 17 45
e 17 48
e 17 49
e 17 50
e 17 52
e 17 53
e 17 56
e 17 57
e 17 60
e 18 19
e 18 20
e 18 22
e 18 23
e 18 25
e 18 26
e 18 29
e 18 34
e 18 35
e 18 40
e 18 41
e 18 42
e 18 45
e 18 49
e 18 58
e 19 22
e 19 26
e 19 27
e 19 32
e 19 37
e 19 38
e 19 39
e 19 46
e 19 49
e 19 57
e 19 59
e 20 23
e 20 26
e 20 31
e 20 34
e 20 35
e 20 36
e 20 38
e 20 39
e 20 41
e 20 42
e 20 43
e 20 44
e 20 49
e 20 50
e 20 51
e 20 53
e 20 54
e 20 57
e 21 28
e 21 31
e 21 32
e 21 37
e 21 41
e 21 42
e 21 46
e 21 47
e 21 49
e 21 50
e 21 55
e 21 59
e 22 24
e 22 25
e 22 31
e 22 35
e 22 37
e 22 38
e 22 39
e 22 40
e 22 42
e 22 45
e 22 46
e 22 48
e 22 52
e 22 54
e 22 57
e 22 60
e 23 29
e 23 30
e 23 31
e 23 32
e 23 38
e 23 44
e 23 48
e 23 55
e 23 57
e 24 32
e 24 46
e 24 49
e 24 50
e 24 51
e 24 53
e 24 54
e 24 56
e 24 59
e 24 60
e 25 27
e 25 30
e 25 31
e 25 37
e 25 39
e 25 46
e 25 48
e 25 51
e 25 58
e 26 29
e 26 31
e 26 33
e 26 36
e 26 42
e 26 47
e 26 49
e 26 53
e 26 55
e 26 59
e 27 29
e 27 30
e 27 35
e 27 37
e 27 49
e 27 51
e 27 53
e 27 54
e 28 35
e 28 48
e 28 51
e 28 56
e 28 57
e 29 30
e 29 34
e 29 38
e 29 40
e 29 42
e 29 47
e 29 48
e 29 52
e 29 53
e 29 57
e 29 58
e 30 33
e 30 34
e 30 42
e 30 43
e 30 48
e 30 50
e 30 51
e 30 54
e 30 58
e 30 60
e 31 37
e 31 39
e 31 59
e 32 35
e 32 36
e 32 37
e 32 41
e 32 42
e 32 46
e 32 47
e 32 51
e 33 35
e 33 39
e 33 49
e 33 50
e 33 55
e 33 56
e 33 59
e 34 38
e 34 41
e 35 36
e 35 39
e 35 41
e 35 47
e 35 48
e 35 49
e 35 52
e 35 54
e 35 55
e 35 56
e 36 40
e 36 47
e 36 50
e 36 53
e 36 57
e 36 60
e 37 42
e 37 45
e 37 59
e 38 43
e 38 44
e 38 45
e 38 56
e 38 57
e 38 58
e 38 59
e 38 60
e 39 44
e 39 45
e 39 46
e 39 53
e 39 57
e 39 59
e 40 46
e 40 48
e 40 50
e 41 45
e 41 49
e 41 53
e 41 55
e 41 58
e 41 59
e 41 60
e 42 43
e 42 44
e 42 47
e 42 48
e 42 49
e 42 54
e 42 58
e 43 49
e 43 52
e 43 53
e 44 46
e 44 53
e 44 55
e 45 47
e 45 48
e 45 49
e 45 50
e 45 53
e 45 55
e 45 57
e 46 47
e 46 48
e 46 51
e 46 52
e 46 54
e 46 58
e 47 52
e 47 53
e 47 57
e 48 50
e 48 51
e 48 53
e 49 50
e 49 54
e 49 56
e 49 59
e 49 60
e 50 51
e 50 54
e 50 55
e 50 56
e 51 53
e 51 55
e 52 53
e 52 57
e 53 58
e 54 56
e 55 57
e 56 57
e 56 58
e 57 59
e 58 59
e 58 60
e 59 60
